# Solution for model p01_budget_0p020
# Objective value = 2.0000000000062371e-02
Risk 2.0000000000062371e-02
0 0
1 0
3 0.001
4 30.001
5 3.0002000000000002e+01
6 40.002
7 4.4541360743230669e+01
9 90.4349840320937
c(0,1)_Rl 0.001
c(0,1)_Ru 0
c(0,3)_Rl 0
c(0,3)_Ru 0
c(3,4)_Rl 0
c(3,4)_Ru 0
c(4,5)_Rl 0
c(4,5)_Ru 0
c(3,5)_Rl 0
c(3,5)_Ru 0
c(1,2)_l 0
c(1,2)_u 4.4540360743230671e+01
c(2,7)_Fl 0
c(2,7)_Fu 9.8545545414815416e-03
c(1,7)_Rl 0
c(1,7)_Ru 0
c(5,6)_Rl 0
c(5,6)_Ru 0
c(3,6)_Rl 0
c(3,6)_Ru 0
c(7,8)_l 0
c(7,8)_u 4.5892623288863021e+01
c(1,8)_Fl 0
c(1,8)_Fu 5.0727227292904076e-03
c(0,9)_Rl 0
c(0,9)_Ru 5.4434384032093696e+01
c(8,9)_Fl 0
c(8,9)_Fu 5.0727227292904215e-03
c(6,9)_Rl 0
c(6,9)_Ru 0
Cost 5.4435384032093694e+01
